
Gurobi 6.5.2 (linux64) logging started Wed Mar 15 12:49:48 2017


Gurobi 6.5.2 (linux64) logging started Wed Mar 15 12:49:48 2017

Optimize a model with 201 rows, 1585 columns and 3171 nonzeros
Coefficient statistics:
  Matrix range    [1e+00, 2e+00]
  Objective range [1e+00, 1e+02]
  Bounds range    [1e+00, 1e+00]
  RHS range       [1e+00, 1e+00]
Presolve removed 101 rows and 100 columns
Presolve time: 0.00s
Presolved: 100 rows, 1485 columns, 2970 nonzeros
Variable types: 0 continuous, 1485 integer (1485 binary)

Root relaxation: objective 1.502500e+03, 161 iterations, 0.00 seconds

    Nodes    |    Current Node    |     Objective Bounds      |     Work
 Expl Unexpl |  Obj  Depth IntInf | Incumbent    BestBd   Gap | It/Node Time

     0     0 1502.50000    0   16          - 1502.50000      -     -    0s
     0     0 1506.50000    0   18          - 1506.50000      -     -    0s
     0     0 1507.50000    0   14          - 1507.50000      -     -    0s
     0     0 1508.00000    0    4          - 1508.00000      -     -    0s
     0     0 1508.00000    0   33          - 1508.00000      -     -    0s
     0     0 1508.00000    0   10          - 1508.00000      -     -    0s
     0     2 1508.00000    0    4          - 1508.00000      -     -    0s
H 1107   872                    1522.0000000 1521.06319  0.06%   9.0    0s

Cutting planes:
  Gomory: 2
  MIR: 2
  Flow cover: 4
  Zero half: 5
  Lazy constraints: 12

Explored 1107 nodes (10502 simplex iterations) in 0.88 seconds
Thread count was 8 (of 8 available processors)

Optimal solution found (tolerance 1.00e-04)
Best objective 1.522000000000e+03, best bound 1.522000000000e+03, gap 0.0%
